GPU_version/outputs/c107.out
Total number of lines in the file: 110
Total number of nodes including depot: 101
Customer 1: (40, 50), Demand: 0, Time Window: [0, 1236], Service Time: 0
Customer 2: (45, 68), Demand: 10, Time Window: [850, 1030], Service Time: 90
Customer 3: (45, 70), Demand: 30, Time Window: [758, 938], Service Time: 90
Customer 4: (42, 66), Demand: 10, Time Window: [16, 196], Service Time: 90
Customer 5: (42, 68), Demand: 10, Time Window: [665, 845], Service Time: 90
calling MST kernel
Post Processing Route
Post 2 opt Processing Route
2-opt between 25 and 26 improved cost from 2081.74 to 2076.12
Elapsed time: 0.617381 seconds
Final Route: 
Route #1: 67 65 63 62 74 61 64 68 
Route #2: 55 57 59 
Route #3: 54 53 56 58 60 
Route #4: 40 
Route #5: 41 
Route #6: 42 43 44 45 48 50 
Route #7: 51 
Route #8: 46 47 49 
Route #9: 52 
Route #10: 72 66 69 
Route #11: 20 21 
Route #12: 22 
Route #13: 25 27 29 34 
Route #14: 33 32 31 35 36 
Route #15: 39 
Route #16: 38 
Route #17: 37 
Route #18: 24 23 
Route #19: 26 
Route #20: 28 
Route #21: 30 
Route #22: 10 11 
Route #23: 13 17 18 19 15 16 14 12 
Route #24: 8 9 6 4 
Route #25: 3 7 
Route #26: 5 75 
Route #27: 1 
Route #28: 2 
Route #29: 98 96 95 94 93 
Route #30: 92 97 100 99 91 
Route #31: 89 
Route #32: 90 87 86 88 
Route #33: 85 
Route #34: 84 
Route #35: 83 82 
Route #36: 81 78 76 71 70 73 77 79 80 
Route #37: Total Distance: 2081.74
Final route is valid
